# 50164
param n := 30;
param s := 1;
set E :=  (0,3) (1,18) (2,27) (3,22) (4,6) (4,9) (5,23) (7,8) (7,27) (8,10) (8,29) (9,14) (9,16) (10,22) (11,12) (11,17) (11,19) (12,18) (12,21) (13,20) (13,29) (15,21) (16,17) (21,28) (23,27) (24,25) (25,26) (26,28) (28,29);
